p cnf 12 50 
-10 -8 5 0
5 -12 4 0
2 7 6 0
11 -4 -8 0
-3 -5 -12 0
1 -7 -11 0
-2 11 -12 0
12 3 -5 0
7 -1 5 0
-7 11 -12 0
10 8 6 0
-3 -6 8 0
7 11 -4 0
4 -5 1 0
9 10 4 0
-11 9 6 0
2 -3 -4 0
-9 -7 10 0
7 -11 -2 0
-10 -11 9 0
-12 4 11 0
-2 -11 3 0
-3 -1 11 0
-12 11 6 0
5 4 10 0
10 -9 3 0
9 8 7 0
7 8 -4 0
-5 -7 -12 0
-4 -8 -2 0
-9 1 -11 0
-6 9 -7 0
-6 -1 -11 0
1 4 -12 0
-1 -7 -8 0
-9 12 8 0
10 -1 8 0
-5 -7 -11 0
-12 6 -7 0
-12 -2 -8 0
5 9 -12 0
5 -11 -6 0
7 -9 6 0
-2 -6 1 0
8 3 -9 0
-8 -12 1 0
-4 -1 -9 0
3 8 7 0
12 3 -6 0
-1 -10 -12 0
